\* Dual *\
Maximize
OBJ: 445 pi0 + 177 pi1 + 339 pi10 + 456 pi11 + 151 pi12 + 407 pi13 + 347 pi14
 + 216 pi15 + 317 pi16 + 399 pi17 + 351 pi18 + 202 pi19 + 336 pi2 + 412 pi3
 + 228 pi4 + 252 pi5 + 274 pi6 + 227 pi7 + 219 pi8 + 311 pi9
Subject To
_C1: 4 pi0 + 6 pi1 + 7 pi10 + 6 pi11 + 5 pi12 + 9 pi14 + 6 pi15 + 7 pi16
 + 7 pi17 + pi18 + 5 pi19 + 5 pi2 + 2 pi4 + pi5 + 5 pi6 + 4 pi7 + 6 pi8 + pi9
 <= 158
_C10: 3 pi0 + 5 pi1 + 4 pi10 + 9 pi11 + 5 pi12 + 8 pi13 + 2 pi14 + 8 pi15
 + 7 pi17 + 5 pi18 + 5 pi19 + 6 pi2 + 2 pi3 + 8 pi4 + 2 pi5 + 2 pi7 + pi8
 + 4 pi9 <= 68
_C2: 9 pi1 + 7 pi10 + 7 pi12 + 4 pi13 + 8 pi14 + pi16 + 4 pi17 + pi18 + 8 pi19
 + 3 pi2 + 2 pi4 + 9 pi5 + 6 pi7 + 6 pi8 + pi9 <= 181
_C3: 4 pi1 + 5 pi10 + 7 pi11 + 5 pi12 + 5 pi13 + 2 pi14 + 8 pi15 + 5 pi16
 + pi17 + 7 pi18 + 5 pi19 + 2 pi2 + 6 pi3 + pi4 + 3 pi5 + 9 pi6 + 2 pi8
 + 3 pi9 <= 111
_C4: 5 pi0 + 8 pi1 + 4 pi10 + 6 pi11 + pi12 + 3 pi13 + 9 pi14 + 5 pi16
 + 9 pi17 + 2 pi18 + 7 pi19 + 3 pi2 + 9 pi3 + pi4 + 8 pi5 + 4 pi6 + 9 pi7
 + pi8 + 6 pi9 <= 34
_C5: 5 pi0 + 6 pi1 + 6 pi10 + 7 pi11 + pi12 + 8 pi13 + pi14 + 6 pi15 + 5 pi16
 + 9 pi17 + 8 pi18 + 6 pi19 + 3 pi2 + pi3 + pi4 + 8 pi5 + 8 pi6 + 9 pi7
 + 8 pi9 <= 148
_C6: 8 pi0 + 6 pi1 + 8 pi10 + pi11 + 5 pi12 + 6 pi13 + 5 pi14 + 3 pi15
 + 2 pi16 + pi17 + 6 pi18 + 4 pi19 + 2 pi2 + 2 pi3 + 5 pi4 + 6 pi5 + 9 pi6
 + 2 pi7 + pi8 + 6 pi9 <= 60
_C7: 6 pi0 + 4 pi1 + pi10 + 3 pi11 + 6 pi13 + 8 pi14 + 7 pi15 + 5 pi16
 + 2 pi17 + 4 pi18 + 8 pi19 + 9 pi2 + 2 pi4 + pi5 + 7 pi6 + pi7 + 9 pi8
 + 4 pi9 <= 174
_C8: 3 pi0 + 8 pi1 + 5 pi10 + 8 pi11 + 4 pi12 + 8 pi13 + 4 pi14 + 9 pi15
 + 9 pi16 + 8 pi17 + 6 pi2 + 6 pi3 + 6 pi4 + 8 pi5 + 9 pi6 + 3 pi7 + 3 pi8
 + 2 pi9 <= 169
_C9: 8 pi0 + 8 pi10 + pi11 + 6 pi12 + 9 pi13 + 7 pi14 + 6 pi15 + pi17 + pi18
 + 5 pi19 + 5 pi2 + 2 pi3 + 7 pi5 + 8 pi6 + 5 pi7 + 5 pi8 + 6 pi9 <= 49
End
